NAME: random-49-22533
TYPE: TSP
COMMENT: size=49 seed=22533
DIMENSION: 100
EDGE_WEIGHT_TYPE: EUC_2D
NODE_COORD_SECTION
+0 131 656
-0 131 656
+1 102 325
-1 132 462
+2 977 430
-2 793 457
+3 808 373
-3 83 154
+4 710 626
-4 287 814
+5 170 752
-5 560 326
+6 778 458
-6 183 276
+7 597 602
-7 437 680
+8 185 668
-8 588 177
+9 822 949
-9 450 489
+10 209 243
-10 368 263
+11 545 946
-11 420 558
+12 234 330
-12 196 241
+13 385 634
-13 579 273
+14 678 246
-14 401 791
+15 378 882
-15 66 156
+16 829 539
-16 682 996
+17 839 622
-17 380 88
+18 234 552
-18 453 7
+19 238 872
-19 652 892
+20 804 974
-20 278 769
+21 653 240
-21 882 117
+22 943 600
-22 866 965
+23 42 551
-23 423 564
+24 233 854
-24 458 832
+25 804 780
-25 506 678
+26 460 807
-26 581 233
+27 528 728
-27 628 56
+28 173 985
-28 342 303
+29 486 596
-29 656 710
+30 230 892
-30 253 519
+31 100 826
-31 178 455
+32 26 461
-32 144 821
+33 317 372
-33 440 401
+34 215 868
-34 186 942
+35 958 307
-35 797 695
+36 396 200
-36 955 891
+37 948 669
-37 691 802
+38 802 880
-38 111 46
+39 852 2
-39 836 693
+40 711 153
-40 845 797
+41 421 3
-41 590 452
+42 275 107
-42 926 470
+43 307 216
-43 5 366
+44 956 279
-44 97 178
+45 80 84
-45 107 816
+46 750 255
-46 857 145
+47 567 1
-47 906 144
+48 139 661
-48 68 117
+49 647 584
-49 254 462
PRECEDENCE_SECTION
+0 -0
+1 -1
+2 -2
+3 -3
+4 -4
+5 -5
+6 -6
+7 -7
+8 -8
+9 -9
+10 -10
+11 -11
+12 -12
+13 -13
+14 -14
+15 -15
+16 -16
+17 -17
+18 -18
+19 -19
+20 -20
+21 -21
+22 -22
+23 -23
+24 -24
+25 -25
+26 -26
+27 -27
+28 -28
+29 -29
+30 -30
+31 -31
+32 -32
+33 -33
+34 -34
+35 -35
+36 -36
+37 -37
+38 -38
+39 -39
+40 -40
+41 -41
+42 -42
+43 -43
+44 -44
+45 -45
+46 -46
+47 -47
+48 -48
+49 -49
EOF
